WARNING: for repeatability, setting FPU to use double precision
 -----------------------------------------------------------------------------------------------------------------------
|                                 manysat2.0    4 thread(s) on 8 core(s)                                                |
 -----------------------------------------------------------------------------------------------------------------------
 ===============================================[ Problem Statistics ]==================================================
|                                                                                                                       |
|  Number of cores:                 4                                                                                   |
|  Number of variables:         13408                                                                                   |
|  Number of clauses:          308391                                                                                   |
|  Parse time:                   0.31 s                                                                                 |
|                                                                                                                       |
 ==============================================[ Search Statistics ]====================================================
|   Thread  | Conflicts |          ORIGINAL         |          LEARNT          |  exported  / imported      |  Progress |
|    (id)   |           |    Vars  Clauses Literals |    Limit  Clauses Lit/Cl |  (clauses by restart)      |           |
 =======================================================================================================================
|         0 |       100 |   13004   308303  1771786 |   113044       88      5 |           0  -           0 |  3.013 %  |
|         0 |       250 |   13004   308303  1771786 |   124348      238      6 |           0  -           2 |  3.013 %  |
|         1 |       100 |   13004   308303  1771786 |   113076      528      6 |        1188  -         429 |  3.013 %  |
|         0 |       475 |   13004   308303  1771786 |   136783      627      6 |        1176  -         166 |  3.013 %  |
|         2 |       100 |   13004   308303  1771786 |   113076      882      6 |        1188  -         773 |  3.013 %  |
|         1 |       250 |   13004   308303  1771786 |   124384     1057      6 |        1188  -         808 |  3.013 %  |
|         3 |       100 |   13004   308303  1771786 |   113076     1286      6 |        1188  -        1189 |  3.013 %  |
|         0 |       812 |   13004   308303  1771786 |   150462     1495      6 |        1176  -         697 |  3.013 %  |
|         2 |       250 |   13004   308303  1771786 |   124384     1575      6 |        1188  -        1316 |  3.013 %  |
|         3 |       250 |   13004   308303  1771786 |   124384     1886      6 |        1188  -        1639 |  3.013 %  |
|         1 |       475 |   13004   308303  1771786 |   136822     1910      6 |        1188  -        1436 |  3.013 %  |
|         2 |       475 |   13004   308303  1771786 |   136822     2719      6 |        1188  -        2235 |  3.013 %  |
|         1 |       812 |   13004   308303  1771786 |   150505     2947      6 |        1188  -        2136 |  3.013 %  |
|         3 |       475 |   13004   308303  1771786 |   136822     2949      6 |        1188  -        2477 |  3.013 %  |
|         0 |      1318 |   13004   308303  1771786 |   165508     3130      6 |        1176  -        1826 |  3.013 %  |
|         2 |       812 |   13004   308303  1771786 |   150505     4379      6 |        1188  -        3558 |  3.013 %  |
|         1 |      1318 |   13003   308303  1771786 |   165555     4478      6 |        1188  -        3162 |  3.021 %  |
|         3 |       812 |   13004   308303  1771786 |   150505     4467      6 |        1201  -        3658 |  3.013 %  |
|         0 |      2077 |   13004   308303  1771786 |   182059     5528      6 |        1189  -        3465 |  3.013 %  |
|         2 |      1318 |   13004   308303  1771786 |   165555     6302      6 |        1201  -        4974 |  3.013 %  |
|         1 |      2077 |   13003   308303  1771786 |   182111     6921      6 |        1188  -        4846 |  3.021 %  |
|         3 |      1318 |   13003   308303  1771786 |   165555     6958      6 |        1201  -        5643 |  3.021 %  |
|         0 |      3216 |   13003   308303  1771786 |   200265     9508      6 |        1203  -        6306 |  3.021 %  |
|         2 |      2077 |   13000   308303  1771786 |   182111     9698      6 |        1201  -        7612 |  3.043 %  |
|         3 |      2077 |   13003   308303  1771786 |   182111    10151      6 |        1215  -        8075 |  3.021 %  |
|         1 |      3216 |   13003   308303  1771786 |   200322    10297      6 |        1202  -        7083 |  3.021 %  |
|         2 |      3216 |   13000   308303  1771786 |   200322    14740      6 |        1201  -       11515 |  3.043 %  |
|         0 |      4924 |   13000   308303  1771786 |   220291    15030      6 |        1203  -       10120 |  3.043 %  |
|         3 |      3216 |   13000   308303  1771786 |   200322    14846      6 |        1215  -       11631 |  3.043 %  |
|         1 |      4924 |   13000   308303  1771786 |   220354    15487      6 |        1202  -       10565 |  3.043 %  |
|         1 |      7486 |   13000   308303  1771786 |   242389    22202      7 |        1202  -       14718 |  3.043 %  |
|         3 |      4924 |   13000   308303  1771786 |   220354    22025      6 |        1215  -       17102 |  3.043 %  |
|         2 |      4924 |   13000   308303  1771786 |   220354    22226      6 |        1201  -       17293 |  3.043 %  |
|         0 |      7486 |   13000   308303  1771786 |   242320    22980      7 |        1203  -       15508 |  3.043 %  |
|         2 |      7486 |   13000   308303  1771786 |   242389    30458      7 |        1201  -       22963 |  3.043 %  |
|         1 |     11330 |   13000   308303  1771786 |   266628    31620      7 |        1202  -       20291 |  3.043 %  |
|         0 |     11330 |   13000   308303  1771786 |   266552    33952      7 |        1203  -       22636 |  3.043 %  |
|         3 |      7486 |   13000   308303  1771786 |   242389    33695      7 |        1215  -       26210 |  3.043 %  |
|         2 |     11330 |   13000   308303  1771786 |   266628    43993      7 |        1201  -       32654 |  3.043 %  |
|         1 |     17096 |   13000   308303  1771786 |   293291    45628      8 |        1202  -       28533 |  3.043 %  |
|         0 |     17096 |   13000   308303  1771786 |   293208    46918      9 |        1203  -       29836 |  3.043 %  |
|         3 |     11330 |   13000   308303  1771786 |   266628    46668      7 |        1215  -       35339 |  3.043 %  |
|         1 |     25745 |   13000   308303  1771786 |   322621    63829     10 |        1207  -       38085 |  3.043 %  |
|         0 |     25745 |   12999   308141  1771057 |   322528    65554     10 |        1203  -       39827 |  3.050 %  |
|         3 |     17096 |   13000   308303  1771786 |   293291    63240      8 |        1220  -       46145 |  3.043 %  |
|         2 |     17096 |   13000   308303  1771786 |   293291    64178      8 |        1206  -       47073 |  3.043 %  |
|         3 |     25745 |   12999   308303  1771786 |   322621    82666      8 |        1220  -       56922 |  3.050 %  |
|         2 |     25745 |   12999   308303  1771786 |   322621    84932      9 |        1206  -       59178 |  3.050 %  |
|         1 |     38719 |   12999   308141  1771057 |   354883    98117     11 |        1211  -       59404 |  3.050 %  |
|         0 |     38719 |   12999   308141  1771057 |   354781    98863     11 |        1207  -       60162 |  3.050 %  |
|         2 |     38719 |   12997   308141  1771057 |   354883   110564     11 |        1206  -       71843 |  3.065 %  |
|         3 |     38719 |   12999   308141  1771057 |   354883   111609     12 |        1225  -       72894 |  3.050 %  |
|         1 |     58180 |   12998   308141  1771057 |   390371   137960     13 |        1212  -       79786 |  3.058 %  |
|         0 |     58180 |   12998   308141  1771057 |   390260   150192     11 |        1209  -       92030 |  3.058 %  |
|         3 |     58180 |   12997   308141  1771057 |   390371   150401     12 |        1226  -       92225 |  3.065 %  |
|         2 |     58180 |   12996   308141  1771057 |   390371   158898     12 |        1206  -      100717 |  3.073 %  |
|         1 |     87372 |   12997   308107  1770915 |   429408   203733     14 |        1213  -      116367 |  3.065 %  |
|         2 |     87372 |   12996   308141  1771057 |   429408   209554     14 |        1206  -      122181 |  3.073 %  |
|         0 |     87372 |   12996   308102  1770902 |   429286   205905     13 |        1210  -      118551 |  3.073 %  |
|         3 |     87372 |   12996   308141  1771057 |   429408   211455     13 |        1227  -      124087 |  3.073 %  |
|         2 |    131161 |   12995   308102  1770902 |   472349   288974     16 |        1214  -      157813 |  3.080 %  |
|         1 |    131161 |   12994   308061  1770747 |   472349   293104     16 |        1214  -      161954 |  3.088 %  |
|         0 |    131161 |   12995   308102  1770902 |   472214   294752     15 |        1218  -      163609 |  3.080 %  |
|         3 |    131161 |   12995   308080  1770820 |   472349   298641     16 |        1235  -      167485 |  3.080 %  |
|         2 |    196845 |   12994   308102  1770902 |   519584   409712     18 |        1216  -      212867 |  3.088 %  |
|         1 |    196845 |   12993   308039  1770665 |   519584   421193     19 |        1214  -      224362 |  3.095 %  |
|         3 |    196845 |   12994   308080  1770820 |   519584   420427     19 |        1237  -      223587 |  3.088 %  |
|         0 |    196845 |   12994   308061  1770747 |   519436   448375     17 |        1244  -      251552 |  3.088 %  |
|         2 |    295371 |   12993   308039  1770665 |   571542   105438     17 |        1249  -      288861 |  3.095 %  |
|         3 |    295371 |   12992   308039  1770665 |   571542   134665     22 |        1247  -      328273 |  3.103 %  |
|         0 |    295371 |   12990   308024  1770609 |   571379   164347     16 |        1245  -      349600 |  3.118 %  |
|         1 |    295371 |   12990   308039  1770665 |   571542   173896     21 |        1247  -      353067 |  3.118 %  |
|         2 |    443160 |   12990   308039  1770665 |   628697   420241     20 |        1250  -      455875 |  3.118 %  |
|         3 |    443160 |   12990   308039  1770665 |   628697   397998     20 |        1247  -      443817 |  3.118 %  |
|         0 |    443160 |   12990   308024  1770609 |   628517   427109     22 |        1245  -      464573 |  3.118 %  |
|         1 |    443160 |   12990   307991  1770485 |   628697   440486     25 |        1247  -      471873 |  3.118 %  |
|         2 |    664843 |   12990   307991  1770485 |   691566   156828     21 |        1250  -      579358 |  3.118 %  |
|         3 |    664843 |   12990   307991  1770485 |   691566   182124     21 |        1247  -      604176 |  3.118 %  |
|         1 |    664843 |   12990   307991  1770485 |   691566   212072     21 |        1247  -      615726 |  3.118 %  |
|         0 |    664843 |   12990   307991  1770485 |   691369   271401     23 |        1245  -      656899 |  3.118 %  |
|         3 |    997368 |   12990   307991  1770485 |   760723    55062     19 |        1247  -      798140 |  3.118 %  |
|         2 |    997368 |   12990   307991  1770485 |   760723   111161     33 |        1250  -      853536 |  3.118 %  |
|         0 |    997368 |   12990   307991  1770485 |   760506   101478     17 |        1245  -      816186 |  3.118 %  |
|         1 |    997368 |   12990   307991  1770485 |   760723   199409     19 |        1247  -      873478 |  3.118 %  |
|         0 |   1496156 |   12990   307991  1770485 |   836557   180224     25 |        1245  -     1124049 |  3.118 %  |
|         1 |   1496156 |   12990   307991  1770485 |   836795   204811     20 |        1247  -     1107982 |  3.118 %  |
|         3 |   1496156 |   12990   307991  1770485 |   836795   191001     24 |        1247  -     1152099 |  3.118 %  |
|         2 |   1496156 |   12990   307991  1770485 |   836795   249600     25 |        1250  -     1225310 |  3.118 %  |
|         3 |   2244338 |   12990   307991  1770485 |   920475   511716     31 |        1250  -     1535728 |  3.118 %  |
|         2 |   2244338 |   12990   307991  1770485 |   920475   617753     34 |        1253  -     1652783 |  3.118 %  |
|         0 |   2244338 |   12990   307991  1770485 |   920212   579996     43 |        1248  -     1563735 |  3.118 %  |
|         1 |   2244338 |   12987   307978  1770449 |   920475   309042     64 |        1247  -     1960288 |  3.140 %  |
|         3 |   3366612 |   12988   307983  1770463 |  1012522   301306     38 |        1250  -     1980531 |  3.132 %  |
|         2 |   3366612 |   12987   307978  1770449 |  1012522   550477     33 |        1253  -     2242624 |  3.140 %  |
|         0 |   3366612 |   12987   307978  1770449 |  1012234   473328     43 |        1248  -     2082847 |  3.140 %  |
|         1 |   3366612 |   12987   307978  1770449 |  1012522   475678     35 |        1247  -     2728853 |  3.140 %  |
|         3 |   5050023 |   12988   307983  1770463 |  1113775   975438     36 |        1250  -     2910647 |  3.132 %  |
|         2 |   5050023 |   12987   307978  1770449 |  1113775   142104     27 |        1253  -     3081303 |  3.140 %  |
|         1 |   5050023 |   12987   307978  1770449 |  1113775   950073     49 |        1247  -     3488232 |  3.140 %  |
|         0 |   5050023 |   12987   307978  1770449 |  1113457   203820     72 |        1248  -     3913465 |  3.140 %  |
|         2 |   7575139 |   12987   307978  1770449 |  1225152   369255     34 |        1253  -     4035424 |  3.140 %  |
|         3 |   7575139 |   12988   307983  1770463 |  1225152   438350     42 |        1250  -     4142357 |  3.132 %  |
|         1 |   7575139 |   12987   307978  1770449 |  1225152   341918     52 |        1247  -     4669314 |  3.140 %  |
